k = 34;
b = 17;
AtomicConstraints =  [|
4, 19|
	4, 18|
	19, 18|
	5, 19|
	5, 18|
	6, 19|
	6, 18|
	7, 19|
	7, 18|
	7, 9|
	7, 10|
	7, 11|
	7, 12|
	7, 13|
	8, 19|
	8, 18|
	8, 9|
	8, 10|
	8, 11|
	8, 12|
	8, 13|
	9, 18|
	9, 10|
	9, 11|
	9, 12|
	9, 13|
	10, 11|
	10, 12|
	10, 13|
	11, 12|
	11, 13|
	12, 13|
	14, 19|
	14, 18|
	14, 9|
	14, 10|
	14, 11|
	14, 12|
	14, 13|
	15, 19|
	15, 18|
	16, 1|
	16, 2|
	17, 1|
	17, 2|
	32, 30|
	32, 29|
	32, 28|
	21, 30|
	21, 29|
	21, 28|
	22, 30|
	22, 29|
	22, 28|
	34, 27|
	34, 26|
	34, 30|
	33, 27|
	33, 26|
	33, 20|
	33, 30|
	33, 29|
	23, 32|
	23, 27|
	23, 26|
	23, 20|
	23, 30|
	23, 29|
	24, 32|
	24, 21|
	24, 26|
	24, 20|
	24, 30|
	24, 29|
	24, 28|
	25, 32|
	25, 21|
	25, 22|
	25, 20|
	25, 30|
	25, 29|
	25, 28|
	31, 32|
	31, 21|
	31, 22|
	31, 30|
	31, 29|
	31, 28|
	27, 30|
	26, 30|
	26, 29|
	20, 30|
	20, 29|];
DisjunctiveConstraints =  [|4, 5, 4, 15|
	5, 6, 5, 4|
	6, 7, 6, 5|
	7, 8, 7, 6|
	8, 14, 8, 7|
	15, 4, 15, 3|
	32, 21, 32, 20|
	21, 11, 21, 28|
	21, 22, 21, 32|
	33, 13, 33, 30|
	33, 23, 33, 34|
	33, 29, 12, 33|
	23, 12, 23, 29|
	23, 24, 23, 33|
	23, 28, 11, 23|
	24, 25, 24, 23|
	25, 11, 25, 28|
	25, 31, 25, 24|
	26, 13, 26, 30|
	26, 20, 26, 27|
	26, 29, 12, 26|
	20, 12, 20, 29|
	20, 32, 20, 26|
	20, 28, 11, 20|
	29, 28, 29, 30|];
SoftAtomicConstraints =  [|
2, 1|
15, 3|
5, 4|
6, 5|
7, 6|
8, 7|
14, 8|
4, 15|
16, 17|
13, 18|
12, 19|
32, 20|
22, 21|
24, 23|
25, 24|
31, 25|
20, 26|
26, 27|
28, 29|
29, 30|
21, 32|
23, 33|
33, 34|];
DirectSuccessors =  [];
